Problem:    
Rows:       256
Columns:    89 (72 integer, 72 binary)
Non-zeros:  960
Status:     INTEGER OPTIMAL
Objective:  value = 150.202276 (MINimum)

   No.   Row name        Activity     Lower bound   Upper bound
------ ------------    ------------- ------------- -------------
     1 r.5                   150.202             0               
     2 r.6                   83.2955       -976.51               
     3 r.7                    1150.2             0               
     4 r.8                  -916.705       -962.75               
     5 r.9                   150.202             0               
     6 r.10                  89.3492      -975.389               
     7 r.11                   1150.2             0               
     8 r.12                 -954.468      -961.748               
     9 r.13                   1150.2             0               
    10 r.14                 -911.058      -957.281               
    11 r.15                  150.202             0               
    12 r.16                  88.9423      -936.017               
    13 r.17                   1150.2             0               
    14 r.18                 -953.777      -977.252               
    15 r.19                  150.202             0               
    16 r.20                  46.2235      -963.003               
    17 r.21                   1150.2             0               
    18 r.22                 -976.932      -978.852               
    19 r.23                  150.202             0               
    20 r.24                  83.8083      -967.586               
    21 r.25                   1150.2             0               
    22 r.26                 -998.894      -998.894               
    23 r.27                  150.202             0               
    24 r.28                  2.94582       -988.69               
    25 r.29                  150.202             0               
    26 r.30                  150.202      -938.884               
    27 r.31                   1150.2             0               
    28 r.32                 -849.798      -933.093               
    29 r.33                   1150.2             0               
    30 r.34                 -849.798       -938.74               
    31 r.35                  150.202             0               
    32 r.36                  150.202      -933.021               
    33 r.37                        1             1             = 
    34 r.38                        1             1             = 
    35 r.39                        1             1             = 
    36 r.40                        1             1             = 
    37 r.41                        1             1             = 
    38 r.42                        1             1             = 
    39 r.43                        1             1             = 
    40 r.44                        1             1             = 
    41 r.45                     1000             2               
    42 r.46                    -1000         -1001               
    43 r.47                  2006.05      -975.389               
    44 r.48                        2             2               
    45 r.49                       -2         -1001               
    46 r.50                 -37.7633      -961.748               
    47 r.51                     1001             2               
    48 r.52                    -1001         -1001               
    49 r.53                  2005.65      -957.281               
    50 r.54                     1001             2               
    51 r.55                    -1001         -1001               
    52 r.56                  2005.65      -936.017               
    53 r.57                     1001             2               
    54 r.58                    -1001         -1001               
    55 r.59                  1962.93      -977.252               
    56 r.60                     1001             2               
    57 r.61                    -1001         -1001               
    58 r.62                  1962.93      -963.003               
    59 r.63                     1001             2               
    60 r.64                    -1001         -1001               
    61 r.65                  1939.77      -978.852               
    62 r.66                     1001             2               
    63 r.67                    -1001         -1001               
    64 r.68                  2000.51      -967.586               
    65 r.69                  81.3753       -976.51               
    66 r.70                 -918.625       -962.75               
    67 r.71                  81.3753       -976.51               
    68 r.72                 -918.625       -962.75               
    69 r.73                  66.9068      -938.884               
    70 r.74                 -933.093      -933.093               
    71 r.75                  66.9068      -938.884               
    72 r.76                 -933.093      -933.093               
    73 r.77                     1001             2               
    74 r.78                    -1001         -1001               
    75 r.79                  2066.91       -938.74               
    76 r.80                     1001             2               
    77 r.81                    -1001         -1001               
    78 r.82                  2066.91      -933.021               
    79 r.83                     1000             2               
    80 r.84                    -1000         -1001               
    81 r.85                  1994.35       23.4905               
    82 r.86                        2             2               
    83 r.87                       -2         -1001               
    84 r.88                  37.2505       37.2505               
    85 r.89                     1001             2               
    86 r.90                    -1001         -1001               
    87 r.91                     2000      -957.281               
    88 r.92                     1001             2               
    89 r.93                    -1001         -1001               
    90 r.94                   2042.9      -936.017               
    91 r.95                     1001             2               
    92 r.96                    -1001         -1001               
    93 r.97                  1957.28      -977.252               
    94 r.98                     1001             2               
    95 r.99                    -1001         -1001               
    96 r.100                 2000.18      -963.003               
    97 r.101                    1001             2               
    98 r.102                   -1001         -1001               
    99 r.103                 1934.13      -978.852               
   100 r.104                    1001             2               
   101 r.105                   -1001         -1001               
   102 r.106                 2037.76      -967.586               
   103 r.107                  87.429      -975.389               
   104 r.108                -956.388      -961.748               
   105 r.109                  87.429      -975.389               
   106 r.110                -956.388      -961.748               
   107 r.111                    1000             2               
   108 r.112                   -1000         -1001               
   109 r.113                 2061.26      -938.884               
   110 r.114                       2             2               
   111 r.115                      -2         -1001               
   112 r.116                -895.843      -933.093               
   113 r.117                 -938.74       -938.74               
   114 r.118                   61.26      -933.021               
   115 r.119                -895.843       -938.74               
   116 r.120                 104.157      -933.021               
   117 r.121                    1001             2               
   118 r.122                   -1001         -1001               
   119 r.123                 1994.35       23.4905               
   120 r.124                    1001             2               
   121 r.125                   -1001         -1001               
   122 r.126                 1994.35       37.2505               
   123 r.127                    1001             2               
   124 r.128                   -1001         -1001               
   125 r.129                 2000.41       24.6114               
   126 r.130                    1001             2               
   127 r.131                   -1001         -1001               
   128 r.132                 1956.59       38.2525               
   129 r.133                -957.281      -957.281               
   130 r.134                 42.7188      -936.017               
   131 r.135                -957.281      -957.281               
   132 r.136                 42.7188      -936.017               
   133 r.137                       2             2               
   134 r.138                      -2         -1001               
   135 r.139                -65.8741      -978.852               
   136 r.140                    1000             2               
   137 r.141                   -1000         -1001               
   138 r.142                 1994.87      -967.586               
   139 r.143                -912.978      -957.281               
   140 r.144                 87.0221      -936.017               
   141 r.145                -912.978      -957.281               
   142 r.146                 87.0221      -936.017               
   143 r.147                    1001             2               
   144 r.148                   -1001         -1001               
   145 r.149                 2061.26      -938.884               
   146 r.150                    1001             2               
   147 r.151                   -1001         -1001               
   148 r.152                 2061.26      -933.093               
   149 r.153                 -938.74       -938.74               
   150 r.154                   61.26      -933.021               
   151 r.155                 -938.74       -938.74               
   152 r.156                   61.26      -933.021               
   153 r.157                    1001             2               
   154 r.158                   -1001         -1001               
   155 r.159                 2037.07       23.4905               
   156 r.160                    1001             2               
   157 r.161                   -1001         -1001               
   158 r.162                 2037.07       37.2505               
   159 r.163                    1001             2               
   160 r.164                   -1001         -1001               
   161 r.165                 2043.13       24.6114               
   162 r.166                    1001             2               
   163 r.167                   -1001         -1001               
   164 r.168                 1999.31       38.2525               
   165 r.169                       2             2               
   166 r.170                      -2         -1001               
   167 r.171                -23.1553      -978.852               
   168 r.172                    1000             2               
   169 r.173                   -1000         -1001               
   170 r.174                 2037.58      -967.586               
   171 r.175                -955.697      -977.252               
   172 r.176                 44.3033      -963.003               
   173 r.177                -955.697      -977.252               
   174 r.178                 44.3033      -963.003               
   175 r.179                    1001             2               
   176 r.180                   -1001         -1001               
   177 r.181                 2103.98      -938.884               
   178 r.182                    1001             2               
   179 r.183                   -1001         -1001               
   180 r.184                 2103.98      -933.093               
   181 r.185                -896.021       -938.74               
   182 r.186                 103.979      -933.021               
   183 r.187                -896.021       -938.74               
   184 r.188                 103.979      -933.021               
   185 r.189                    1001             2               
   186 r.190                   -1001         -1001               
   187 r.191                 2059.82       23.4905               
   188 r.192                    1001             2               
   189 r.193                   -1001         -1001               
   190 r.194                    2000       37.2505               
   191 r.195                    1001             2               
   192 r.196                   -1001         -1001               
   193 r.197                 2065.87       24.6114               
   194 r.198                    1001             2               
   195 r.199                   -1001         -1001               
   196 r.200                 1962.24       38.2525               
   197 r.201                       2             2               
   198 r.202                      -2         -1001               
   199 r.203                 65.4672       42.7188               
   200 r.204                    1000             2               
   201 r.205                   -1000         -1001               
   202 r.206                 2005.65       63.9834               
   203 r.207                       2             2               
   204 r.208                      -2         -1001               
   205 r.209                 22.7484       22.7484               
   206 r.210                    1000             2               
   207 r.211                   -1000         -1001               
   208 r.212                 1962.93       36.9971               
   209 r.213                -978.852      -978.852               
   210 r.214                 81.8881      -967.586               
   211 r.215                -978.852      -978.852               
   212 r.216                 81.8881      -967.586               
   213 r.217                 126.727      -938.884               
   214 r.218                -873.273      -933.093               
   215 r.219                 66.9068      -938.884               
   216 r.220                -933.093      -933.093               
   217 r.221                -873.273       -938.74               
   218 r.222                 126.727      -933.021               
   219 r.223                -933.093       -938.74               
   220 r.224                 66.9068      -933.021               
   221 r.225                    1000             2               
   222 r.226                   -1000         -1001               
   223 r.227                 1939.15       24.6114               
   224 r.228                       2             2               
   225 r.229                      -2         -1001               
   226 r.230                  895.33       38.2525               
   227 r.231                    1001             2               
   228 r.232                   -1001         -1001               
   229 r.233                 1938.74       42.7188               
   230 r.234                    1001             2               
   231 r.235                   -1001         -1001               
   232 r.236                 1938.74       63.9834               
   233 r.237                    1001             2               
   234 r.238                   -1001         -1001               
   235 r.239                 1896.02       22.7484               
   236 r.240                    1001             2               
   237 r.241                   -1001         -1001               
   238 r.242                 1896.02       36.9971               
   239 r.243                    1001             2               
   240 r.244                   -1001         -1001               
   241 r.245                    2000       -938.74               
   242 r.246                    1001             2               
   243 r.247                   -1001         -1001               
   244 r.248                    2000      -933.021               
   245 r.249                    1001             2               
   246 r.250                   -1001         -1001               
   247 r.251                 1933.09       23.4905               
   248 r.252                    1001             2               
   249 r.253                   -1001         -1001               
   250 r.254                 1933.09       37.2505               
   251 r.255                    1001             2               
   252 r.256                   -1001         -1001               
   253 r.257                    2000       61.1162               
   254 r.258                    1001             2               
   255 r.259                   -1001         -1001               
   256 r.260                    2000       66.9068               

   No. Column name       Activity     Lower bound   Upper bound
------ ------------    ------------- ------------- -------------
     1 tt                    150.202             0               
     2 s_1_1        *              0             0             1 
     3 t_1_1                 66.9068             0               
     4 s_1_7        *              0             0             1 
     5 s_2_1        *              1             0             1 
     6 t_2_1                 66.9068             0               
     7 s_2_7        *              1             0             1 
     8 s_1_2        *              0             0             1 
     9 t_1_2                   61.26             0               
    10 s_1_8        *              1             0             1 
    11 s_2_2        *              1             0             1 
    12 t_2_2                 104.157             0               
    13 s_2_8        *              0             0             1 
    14 s_1_3        *              1             0             1 
    15 t_1_3                   61.26             0               
    16 s_2_3        *              0             0             1 
    17 t_2_3                   61.26             0               
    18 s_1_4        *              1             0             1 
    19 t_1_4                 103.979             0               
    20 s_2_4        *              0             0             1 
    21 t_2_4                 103.979             0               
    22 s_1_5        *              1             0             1 
    23 t_1_5                 126.727             0               
    24 s_2_5        *              0             0             1 
    25 t_2_5                 66.9068             0               
    26 s_1_6        *              1             0             1 
    27 t_1_6                 148.282             0               
    28 s_2_6        *              0             0             1 
    29 t_2_6                 148.282             0               
    30 t_1_7                       0             0               
    31 t_2_7                       0             0               
    32 t_1_8                       0             0               
    33 t_2_8                       0             0               
    34 r_1_1_2      *              1             0             1 
    35 u_1_1_2      *              0             0             1 
    36 r_2_1_2      *              0             0             1 
    37 u_2_1_2      *              0             0             1 
    38 r_1_1_3      *              1             0             1 
    39 u_1_1_3      *              0             0             1 
    40 r_2_1_3      *              1             0             1 
    41 u_2_1_3      *              0             0             1 
    42 r_1_1_4      *              1             0             1 
    43 u_1_1_4      *              0             0             1 
    44 r_2_1_4      *              1             0             1 
    45 u_2_1_4      *              0             0             1 
    46 r_1_1_5      *              1             0             1 
    47 u_1_1_5      *              0             0             1 
    48 r_2_1_5      *              1             0             1 
    49 u_2_1_5      *              0             0             1 
    50 r_1_1_8      *              1             0             1 
    51 u_1_1_8      *              0             0             1 
    52 r_2_1_8      *              1             0             1 
    53 u_2_1_8      *              0             0             1 
    54 r_1_2_3      *              1             0             1 
    55 u_1_2_3      *              0             0             1 
    56 r_2_2_3      *              1             0             1 
    57 u_2_2_3      *              0             0             1 
    58 r_1_2_4      *              1             0             1 
    59 u_1_2_4      *              0             0             1 
    60 r_2_2_4      *              1             0             1 
    61 u_2_2_4      *              0             0             1 
    62 r_1_2_5      *              1             0             1 
    63 u_1_2_5      *              0             0             1 
    64 r_2_2_5      *              1             0             1 
    65 u_2_2_5      *              0             0             1 
    66 r_1_2_7      *              1             0             1 
    67 u_1_2_7      *              0             0             1 
    68 r_2_2_7      *              0             0             1 
    69 u_2_2_7      *              1             0             1 
    70 r_1_3_5      *              0             0             1 
    71 u_1_3_5      *              0             0             1 
    72 r_2_3_5      *              1             0             1 
    73 u_2_3_5      *              0             0             1 
    74 r_1_3_7      *              1             0             1 
    75 u_1_3_7      *              0             0             1 
    76 r_2_3_7      *              1             0             1 
    77 u_2_3_7      *              0             0             1 
    78 r_1_4_5      *              0             0             1 
    79 u_1_4_5      *              0             0             1 
    80 r_2_4_5      *              1             0             1 
    81 u_2_4_5      *              0             0             1 
    82 r_1_4_7      *              1             0             1 
    83 u_1_4_7      *              0             0             1 
    84 r_2_4_7      *              1             0             1 
    85 u_2_4_7      *              0             0             1 
    86 r_1_7_8      *              1             0             1 
    87 u_1_7_8      *              0             0             1 
    88 r_2_7_8      *              1             0             1 
    89 u_2_7_8      *              0             0             1 

Integer feasibility conditions:

KKT.PE: max.abs.err = 4.55e-13 on row 43
        max.rel.err = 1.10e-16 on row 99
        High quality

KKT.PB: max.abs.err = 2.49e-14 on row 205
        max.rel.err = 1.05e-15 on row 205
        High quality

End of output
